
Gurobi 11.0.3 (linux64) logging started Fri Nov 22 06:54:35 2024

Set parameter LogFile to value "/home/yihong/Coding/OR_SUC/SUC_results_bigM100000_thread4/case24_ieee_rts_theta0.1_epsilon0.05_gurobi_seed1150000_num_gen100_N_WDR100_load_scaling_factor1_exact_T16quadra_cost.txt"
Set parameter TimeLimit to value 3600
Gurobi Optimizer version 11.0.3 build v11.0.3rc0 (linux64 - "Ubuntu 20.04.6 LTS")

CPU model: AMD EPYC 7532 32-Core Processor, instruction set [SSE2|AVX|AVX2]
Thread count: 64 physical cores, 128 logical processors, using up to 4 threads

Optimize a model with 38307 rows, 20041 columns and 883306 nonzeros
Model fingerprint: 0x503fadbd
Model has 1600 quadratic constraints
Variable types: 18341 continuous, 1700 integer (1700 binary)
Coefficient statistics:
  Matrix range     [3e-04, 1e+05]
  QMatrix range    [2e-03, 8e-03]
  QLMatrix range   [2e-01, 6e+01]
  Objective range  [1e+00, 1e+00]
  Bounds range     [1e+00, 1e+00]
  RHS range        [1e+00, 1e+05]
Presolve removed 31318 rows and 8538 columns
Presolve time: 0.24s
Presolved: 6989 rows, 11503 columns, 39441 nonzeros
Presolved model has 1600 quadratic constraint(s)
Variable types: 9820 continuous, 1683 integer (1683 binary)

Root relaxation: objective 2.060777e+04, 5450 iterations, 0.12 seconds (0.18 work units)

    Nodes    |    Current Node    |     Objective Bounds      |     Work
 Expl Unexpl |  Obj  Depth IntInf | Incumbent    BestBd   Gap | It/Node Time

     0     0 20607.7714    0   11          - 20607.7714      -     -    0s
     0     0 224289.930    0  487          - 224289.930      -     -    0s
     0     0 224768.810    0  487          - 224768.810      -     -    0s
     0     0 413728.358    0  391          - 413728.358      -     -    1s
     0     0 413841.179    0  263          - 413841.179      -     -    1s
     0     0 414364.941    0  215          - 414364.941      -     -    1s
     0     0 414386.227    0  215          - 414386.227      -     -    1s
     0     0 414566.153    0  210          - 414566.153      -     -    1s
     0     0 414569.643    0  209          - 414569.643      -     -    1s
     0     2 414569.643    0  209          - 414569.643      -     -    2s
H  201   241                    415202.29144 414867.548  0.08%  28.2    3s
*  201   241              69    415202.29144 414867.548  0.08%  28.2    3s

Cutting planes:
  Gomory: 12
  Implied bound: 270
  MIR: 110
  Flow cover: 119
  RLT: 1

Explored 248 nodes (20800 simplex iterations) in 3.48 seconds (4.08 work units)
Thread count was 4 (of 128 available processors)

Solution count 2: 415202 415202 

Optimal solution found (tolerance 1.00e-03)
Warning: max constraint violation (2.3079e-07) exceeds tolerance
Best objective 4.152022914441e+05, best bound 4.148675476742e+05, gap 0.0806%
